param n := 10;
param k := 2;
param max_ciudades := 5;

param dist :
0 1 2 3 4 5 6 7 8 9 :=
0 0 31 32 28 51 50 74 66 71 45
1 31 0 62 22 35 33 90 77 101 54
2 32 62 0 52 72 73 61 62 40 49
3 28 22 52 0 23 22 68 54 86 32
4 51 35 72 23 0 2 71 55 103 37
5 50 33 73 22 2 0 73 57 104 39
6 74 90 61 68 71 73 0 18 59 36
7 66 77 62 54 55 57 18 0 70 23
8 71 101 40 86 103 104 59 70 0 69
9 45 54 49 32 37 39 36 23 69 0
;
